MLIP output to VASP                     
   1.00000000000000     
     6.2650730000000001    0.0000000000000000    0.0000000000000000
     0.0000000000000000    6.2650730000000001    0.0000000000000000
     0.0000000000000000    0.0000000000000000    6.2650730000000001
   C
    24
Direct
  0.7193691119002139  0.0200800533369687  0.1214493430483543
  0.4798057420879189  0.3562164399361336  0.2580718532729023
  0.8070662544554565  0.1976063167979021  0.5237667621750006
  0.9115922511996288  0.3328666721042168  0.1755674674501009
  0.3750716073060900  0.8489559499147106  0.1523300686201097
  0.2672848345103063  0.6870504142569445  0.4772461549929261
  0.2083796948575056  0.5203340807042451  0.0431024506817366
  0.9662856282759975  0.8580289487448880  0.2341382135531376
  0.3458535918097070  0.2019010792052995  0.9927592224384298
  0.4247600945751131  0.4103950584454452  0.6928704581734308
  0.2922553336569251  0.0642560749092596  0.5225206474050665
  0.9941169081349912  0.3371232865123872  0.7411699751942251
  0.7510965953628954  0.6096902621884865  0.5136308866632504
  0.5308760169274933  0.9014474372445491  0.7391361601053958
  0.9826795314276495  0.8580813024844218  0.6912369576539632
  0.7862698487312088  0.6430019251172325  0.9608692508451213
  0.0416649574554029  0.4888554371194047  0.3955843770695111
  0.1500143733361128  0.1737955806740032  0.2716089660886638
  0.0585174346731492  0.0614553094592836  0.9643447091518311
  0.5056217222049924  0.5616451715726214  0.9729302435901417
  0.5956484465544136  0.9256667879209033  0.4215384242130966
  0.6157144537661381  0.6678482437475211  0.2410738071208414
  0.6929386138038609  0.2246846924209791  0.8591799329393268
  0.2468094146708282  0.7518451899922027  0.8153462856697757
 
  0.00000000E+00  0.00000000E+00  0.00000000E+00
  0.00000000E+00  0.00000000E+00  0.00000000E+00
  0.00000000E+00  0.00000000E+00  0.00000000E+00
  0.00000000E+00  0.00000000E+00  0.00000000E+00
  0.00000000E+00  0.00000000E+00  0.00000000E+00
  0.00000000E+00  0.00000000E+00  0.00000000E+00
  0.00000000E+00  0.00000000E+00  0.00000000E+00
  0.00000000E+00  0.00000000E+00  0.00000000E+00
  0.00000000E+00  0.00000000E+00  0.00000000E+00
  0.00000000E+00  0.00000000E+00  0.00000000E+00
  0.00000000E+00  0.00000000E+00  0.00000000E+00
  0.00000000E+00  0.00000000E+00  0.00000000E+00
  0.00000000E+00  0.00000000E+00  0.00000000E+00
  0.00000000E+00  0.00000000E+00  0.00000000E+00
  0.00000000E+00  0.00000000E+00  0.00000000E+00
  0.00000000E+00  0.00000000E+00  0.00000000E+00
  0.00000000E+00  0.00000000E+00  0.00000000E+00
  0.00000000E+00  0.00000000E+00  0.00000000E+00
  0.00000000E+00  0.00000000E+00  0.00000000E+00
  0.00000000E+00  0.00000000E+00  0.00000000E+00
  0.00000000E+00  0.00000000E+00  0.00000000E+00
  0.00000000E+00  0.00000000E+00  0.00000000E+00
  0.00000000E+00  0.00000000E+00  0.00000000E+00
  0.00000000E+00  0.00000000E+00  0.00000000E+00
