MLIP output to VASP                     
   1.00000000000000     
     4.2139189999999997    0.0000000000000000    0.0000000000000000
     0.0000000000000000    4.2139189999999997    0.0000000000000000
     0.0000000000000000    0.0000000000000000    4.2139189999999997
   Mg   O 
     4     4
Direct
  0.9725433735199971  0.9595336312824259  0.0189960936600855
  0.0655062425262543  0.5337537337571021  0.4671819747840402
  0.5597361980617066  0.0012024436160232  0.4994922778534630
  0.3828478905266124  0.4870615690524644  0.0465267604811572
  0.4641406253893336  0.0154642270057863  0.9301158849992106
  0.5224065768706012  0.4820049934514614  0.4700194759320269
  0.0453126887346400  0.9899001380899790  0.5066072698597210
  0.9723694261802365  0.5154660068216756  0.0191536666936400
 
  0.00000000E+00  0.00000000E+00  0.00000000E+00
  0.00000000E+00  0.00000000E+00  0.00000000E+00
  0.00000000E+00  0.00000000E+00  0.00000000E+00
  0.00000000E+00  0.00000000E+00  0.00000000E+00
  0.00000000E+00  0.00000000E+00  0.00000000E+00
  0.00000000E+00  0.00000000E+00  0.00000000E+00
  0.00000000E+00  0.00000000E+00  0.00000000E+00
  0.00000000E+00  0.00000000E+00  0.00000000E+00
